Version identifier: 22.1.0.0 | 2022-03-09 | 1a383f8ce
CPXPARAM_Threads                                 1
CPXPARAM_MIP_Strategy_VariableSelect             3
CPXPARAM_TimeLimit                               599.99998575999996
1 of 1 MIP starts provided solutions.
MIP start 'm1' defined initial solution with objective 1.0000.
Tried aggregator 1 time.
MIP Presolve eliminated 9 rows and 0 columns.
MIP Presolve modified 4 coefficients.
Reduced MIP has 1416 rows, 5000 columns, and 70982 nonzeros.
Reduced MIP has 5000 binaries, 0 generals, 0 SOSs, and 0 indicators.
Presolve time = 0.05 sec. (38.59 ticks)
Probing time = 0.00 sec. (5.98 ticks)
Tried aggregator 1 time.
Detecting symmetries...
Reduced MIP has 1416 rows, 5000 columns, and 70982 nonzeros.
Reduced MIP has 5000 binaries, 0 generals, 0 SOSs, and 0 indicators.
Presolve time = 0.05 sec. (41.28 ticks)
Probing time = 0.00 sec. (5.98 ticks)
Clique table members: 799.
MIP emphasis: balance optimality and feasibility.
MIP search method: dynamic search.
Parallel mode: none, using 1 thread.
Root relaxation solution time = 0.72 sec. (798.96 ticks)

        Nodes                                         Cuts/
   Node  Left     Objective  IInf  Best Integer    Best Bound    ItCnt     Gap

*     0+    0                            1.0000     5000.0000              --- 
      0     0      200.0000   857        1.0000      200.0000     3546     --- 
      0     0      200.0000   340        1.0000       Cuts: 4     5050     --- 
      0     0      200.0000   352        1.0000      Cuts: 18     7534     --- 
*     0+    0                          192.0000      200.0000             4.17%
*     0+    0                          194.0000      200.0000             3.09%
*     0+    0                          195.0000      200.0000             2.56%
      0     0        cutoff            195.0000      200.0000     7534    2.56%
Detecting symmetries...
      0     2      200.0000   152      195.0000      200.0000     7534    2.56%
Elapsed time = 17.01 sec. (19802.33 ticks, tree = 0.01 MB, solutions = 4)
      1     3      200.0000   271      195.0000      200.0000    13527    2.56%
      2     4      200.0000   572      195.0000      200.0000    17066    2.56%
      3     5      200.0000   193      195.0000      200.0000    17432    2.56%
      4     6      200.0000   593      195.0000      200.0000    21190    2.56%
      5     7      200.0000   194      195.0000      200.0000    21253    2.56%
      6     8      200.0000   591      195.0000      200.0000    33180    2.56%
      7     9      200.0000   491      195.0000      200.0000    34545    2.56%
      8    10      200.0000   473      195.0000      200.0000    34883    2.56%
      9    11      200.0000   462      195.0000      200.0000    34912    2.56%
     10    12      200.0000   628      195.0000      200.0000    36910    2.56%
Elapsed time = 27.30 sec. (31469.09 ticks, tree = 0.05 MB, solutions = 4)
     12    14      200.0000   440      195.0000      200.0000    41554    2.56%
     13    15      200.0000   471      195.0000      200.0000    48613    2.56%
     16    18      200.0000   425      195.0000      200.0000    50858    2.56%
     18    20      200.0000   422      195.0000      200.0000    52998    2.56%
     21    23      200.0000   408      195.0000      200.0000    53317    2.56%
     23    25      200.0000   287      195.0000      200.0000    59421    2.56%
     25    27      200.0000   287      195.0000      200.0000    62512    2.56%
     27    29      200.0000   331      195.0000      200.0000    64745    2.56%
     28    30      200.0000   589      195.0000      200.0000    67860    2.56%
     30    32      200.0000   332      195.0000      200.0000    70776    2.56%
Elapsed time = 43.01 sec. (48900.46 ticks, tree = 0.11 MB, solutions = 4)
     32    34      200.0000   371      195.0000      200.0000    77806    2.56%
     35    37      200.0000   215      195.0000      200.0000    84697    2.56%
     37    39      200.0000   433      195.0000      200.0000    89466    2.56%
     39    41      200.0000   253      195.0000      200.0000    96937    2.56%
     43    45      200.0000   207      195.0000      200.0000   100645    2.56%
     45    47      200.0000   218      195.0000      200.0000   105399    2.56%
     47    49      199.9599   344      195.0000      200.0000   111752    2.56%
     50    52      200.0000   162      195.0000      200.0000   115724    2.56%
     52    54      200.0000   166      195.0000      200.0000   119603    2.56%
     54    56      200.0000   159      195.0000      200.0000   127061    2.56%
Elapsed time = 55.73 sec. (62451.18 ticks, tree = 0.23 MB, solutions = 4)
     56    58      199.9346   214      195.0000      200.0000   132755    2.56%
     59    61      200.0000   168      195.0000      200.0000   139229    2.56%
     63    65      200.0000   154      195.0000      200.0000   147794    2.56%
     66    68      199.6809   332      195.0000      200.0000   153929    2.56%
     70    72      200.0000   151      195.0000      200.0000   159673    2.56%
     74    76      199.9432   326      195.0000      200.0000   167014    2.56%
     78    80      199.8295   280      195.0000      200.0000   174859    2.56%
     82    84      199.7059   250      195.0000      200.0000   181001    2.56%
     87    89      198.3333   224      195.0000      200.0000   185532    2.56%
     93    95      199.9822   321      195.0000      200.0000   188244    2.56%
Elapsed time = 67.58 sec. (74252.91 ticks, tree = 0.72 MB, solutions = 4)
     99   101      198.7500   229      195.0000      200.0000   191939    2.56%
    104   106      199.9820   292      195.0000      200.0000   196719    2.56%
    109   111      199.8438   222      195.0000      200.0000   202425    2.56%
    115   117      199.9820   330      195.0000      200.0000   205917    2.56%
    121   123      199.0000   219      195.0000      200.0000   209352    2.56%
    128   130      199.9820   288      195.0000      200.0000   211891    2.56%
    133   135      198.3333   209      195.0000      200.0000   215741    2.56%
    139   141      198.7500   218      195.0000      200.0000   219887    2.56%
    145   147      199.0000   210      195.0000      200.0000   223070    2.56%
    151   150    infeasible            195.0000      200.0000   227509    2.56%
Elapsed time = 78.03 sec. (84792.14 ticks, tree = 1.44 MB, solutions = 4)
    157   156      198.7500   240      195.0000      200.0000   232281    2.56%
    163   161      199.9727   286      195.0000      200.0000   234728    2.56%
    169   167      199.9652   276      195.0000      200.0000   239559    2.56%
    174   172      199.9649   276      195.0000      200.0000   243872    2.56%
    180   178      199.9649   276      195.0000      200.0000   248079    2.56%
    186   184      198.3333   230      195.0000      200.0000   250458    2.56%
    191   189      199.8562   288      195.0000      200.0000   255005    2.56%
    196   193      199.9148   264      195.0000      200.0000   260154    2.56%
    200   197      199.8674   295      195.0000      200.0000   266611    2.56%
    205   202      199.0000   288      195.0000      200.0000   271642    2.56%
Elapsed time = 88.93 sec. (95505.28 ticks, tree = 2.12 MB, solutions = 4)
    211   208      199.7656   234      195.0000      200.0000   276402    2.56%
    216   212      198.3333   206      195.0000      200.0000   281958    2.56%
    222   218      199.7135   243      195.0000      200.0000   286839    2.56%
    228   222      199.8177   254      195.0000      200.0000   290537    2.56%
    234   227      199.8090   270      195.0000      200.0000   295019    2.56%
    240   233      199.8090   274      195.0000      200.0000   297602    2.56%
    246   239      199.7396   232      195.0000      200.0000   301200    2.56%
    251   244      199.7283   220      195.0000      200.0000   306419    2.56%
    257   250      199.7093   204      195.0000      200.0000   310993    2.56%
    262   255      199.6951   210      195.0000      200.0000   315328    2.56%
Elapsed time = 99.73 sec. (105953.65 ticks, tree = 2.80 MB, solutions = 4)
    269   260      199.6951   226      195.0000      200.0000   320399    2.56%
    276   267      198.3333   180      195.0000      200.0000   323904    2.56%
    283   274      199.6951   228      195.0000      200.0000   327040    2.56%
    290   281      199.0000   145      195.0000      200.0000   331826    2.56%
    295   285      198.0000    74      195.0000      200.0000   340548    2.56%
    298   286      199.7872   274      195.0000      200.0000   347860    2.56%
    303   291      198.7500   278      195.0000      200.0000   351939    2.56%
    308   296      199.7727   264      195.0000      200.0000   355591    2.56%
    312   300      199.0000   136      195.0000      200.0000   361895    2.56%
    317   305      199.0000   150      195.0000      200.0000   369141    2.56%
Elapsed time = 111.09 sec. (116952.52 ticks, tree = 3.46 MB, solutions = 4)
    321   309      198.9089   210      195.0000      200.0000   375625    2.56%
    326   314      199.0000   149      195.0000      200.0000   380494    2.56%
    330   318      198.3333   119      195.0000      200.0000   389536    2.56%
    334   322      198.0806   197      195.0000      200.0000   396988    2.56%
    338   326      197.6452   196      195.0000      200.0000   407390    2.56%
    342   329      198.3333   115      195.0000      200.0000   414436    2.56%
    347   334      198.3333   122      195.0000      200.0000   422409    2.56%
    351   338      198.3333   184      195.0000      200.0000   432065    2.56%
    355   342      198.2895   156      195.0000      200.0000   438518    2.56%
    360   344      197.5000    87      195.0000      200.0000   445426    2.56%
Elapsed time = 123.01 sec. (128297.09 ticks, tree = 3.98 MB, solutions = 4)
    364   348      197.5000   161      195.0000      200.0000   452785    2.56%
    368   352      197.5000   109      195.0000      200.0000   459842    2.56%
    374   353      196.9444   127      195.0000      200.0000   468966    2.56%
    379   356      197.5000    73      195.0000      200.0000   476955    2.56%
    383   359      197.5000    84      195.0000      200.0000   483438    2.56%
    386   358      200.0000   132      195.0000      200.0000   491715    2.56%
    390   362      199.9422   375      195.0000      200.0000   497422    2.56%
    396   367      199.9405   338      195.0000      200.0000   498884    2.56%
    402   373      200.0000   135      195.0000      200.0000   502090    2.56%
    422   393      199.8899   304      195.0000      200.0000   514206    2.56%
Elapsed time = 138.03 sec. (142949.57 ticks, tree = 4.63 MB, solutions = 4)
    446   417      199.8742   234      195.0000      200.0000   523206    2.56%
    471   442      199.8062   265      195.0000      200.0000   535441    2.56%
    497   468      199.7581   259      195.0000      200.0000   547146    2.56%
*   516+  483                          196.0000      200.0000             2.04%
    516   485      199.9465   335      196.0000      200.0000   561154    2.04%
*   517+  464                          197.0000      200.0000             1.52%
    519   468      200.0000   170      197.0000      200.0000   568109    1.52%
    541   490      199.9191   272      197.0000      200.0000   580919    1.52%
    567   516      199.9172   260      197.0000      200.0000   586892    1.52%
    594   543      199.9020   247      197.0000      200.0000   593596    1.52%
    622   569      199.8656   222      197.0000      200.0000   603813    1.52%

Performing restart 1

Repeating presolve.
Tried aggregator 1 time.
Reduced MIP has 1416 rows, 5000 columns, and 70982 nonzeros.
Reduced MIP has 5000 binaries, 0 generals, 0 SOSs, and 0 indicators.
Presolve time = 0.04 sec. (35.55 ticks)
Tried aggregator 1 time.
Reduced MIP has 1416 rows, 5000 columns, and 70982 nonzeros.
Reduced MIP has 5000 binaries, 0 generals, 0 SOSs, and 0 indicators.
Presolve time = 0.05 sec. (42.30 ticks)
Represolve time = 0.30 sec. (240.11 ticks)
    627     0      200.0000   877      197.0000      Cuts: 12   614128    1.52%
    627     0      200.0000   250      197.0000       Cuts: 9   615869    1.52%
    627     0      200.0000   347      197.0000    Cliques: 1   617133    1.52%
    627     0      200.0000   161      197.0000       Cuts: 5   619044    1.52%
    627     0      200.0000   601      197.0000      Cuts: 55   621990    1.52%
    627     0      200.0000   420      197.0000      Cuts: 10   623710    1.52%
    627     0      200.0000   208      197.0000      Cuts: 12   625691    1.52%
    627     2      200.0000   146      197.0000      200.0000   625691    1.52%
Elapsed time = 226.02 sec. (235545.88 ticks, tree = 0.01 MB, solutions = 6)
    630     5      200.0000   495      197.0000      200.0000   639056    1.52%
    635    10      200.0000   396      197.0000      200.0000   651506    1.52%
    641    16      200.0000   396      197.0000      200.0000   656858    1.52%
    648    23      200.0000   252      197.0000      200.0000   666702    1.52%
    655    30      200.0000   130      197.0000      200.0000   682427    1.52%
    661    36      200.0000   195      197.0000      200.0000   693493    1.52%
    667    42      200.0000   227      197.0000      200.0000   704826    1.52%
    674    49      200.0000   269      197.0000      200.0000   715135    1.52%
    682    57      200.0000   221      197.0000      200.0000   727176    1.52%
    691    66      199.9898   448      197.0000      200.0000   746335    1.52%
Elapsed time = 268.36 sec. (280899.53 ticks, tree = 0.66 MB, solutions = 6)
    698    73      200.0000   128      197.0000      200.0000   761357    1.52%
    704    79      199.9597   398      197.0000      200.0000   779260    1.52%
    711    86      200.0000   100      197.0000      200.0000   794342    1.52%
    720    95      199.9167   234      197.0000      200.0000   810590    1.52%
    727   102      200.0000   174      197.0000      200.0000   829847    1.52%
    738   112      199.6875   181      197.0000      200.0000   848169    1.52%
    749   123      199.7273   273      197.0000      200.0000   862513    1.52%
    768   133      199.5714   255      197.0000      200.0000   875766    1.52%
    785   139      199.5000   285      197.0000      200.0000   891988    1.52%
    800   148      199.3333   236      197.0000      200.0000   905688    1.52%
Elapsed time = 329.22 sec. (338208.55 ticks, tree = 1.61 MB, solutions = 6)
    817   158      198.9167   226      197.0000      200.0000   917519    1.52%
    836   169        cutoff            197.0000      200.0000   929035    1.52%
    851   181      198.7500   222      197.0000      200.0000   941530    1.52%
    866   184      199.8529   257      197.0000      200.0000   961082    1.52%
    880   198      198.7778   292      197.0000      200.0000   968259    1.52%
    894   210      199.8437   225      197.0000      200.0000   978658    1.52%
    907   222      199.8397   259      197.0000      200.0000   990335    1.52%
    922   236      199.8043   230      197.0000      200.0000   999551    1.52%
    933   246      199.7876   259      197.0000      200.0000  1011852    1.52%
    947   259      199.0000   253      197.0000      200.0000  1024325    1.52%
Elapsed time = 369.57 sec. (377574.27 ticks, tree = 2.99 MB, solutions = 6)
    963   275      199.6930   311      197.0000      200.0000  1033287    1.52%
    974   286      199.6796   264      197.0000      200.0000  1046139    1.52%
    987   299      199.6000   257      197.0000      200.0000  1056927    1.52%
    996   306      199.6000   263      197.0000      200.0000  1072072    1.52%
   1010   318      198.0000   236      197.0000      200.0000  1084590    1.52%
   1021   325      199.3924   368      197.0000      200.0000  1100108    1.52%
   1028   330      199.4304   348      197.0000      200.0000  1113619    1.52%
   1033   335      199.5063   349      197.0000      200.0000  1130315    1.52%
   1043   343      199.4684   250      197.0000      200.0000  1144324    1.52%
   1051   347      199.3766   366      197.0000      200.0000  1160162    1.52%
Elapsed time = 409.57 sec. (417519.62 ticks, tree = 4.13 MB, solutions = 6)
   1066   358      199.3766   317      197.0000      200.0000  1169073    1.52%
   1073   365      199.0244   215      197.0000      200.0000  1180620    1.52%
   1082   370      199.6875   246      197.0000      200.0000  1194677    1.52%
   1106   394      199.6203   236      197.0000      200.0000  1198582    1.52%
   1124   411      199.4375   263      197.0000      200.0000  1207173    1.52%
   1141   422      199.0000   260      197.0000      200.0000  1218882    1.52%
   1160   434      198.2500   259      197.0000      200.0000  1229400    1.52%
   1181   452      199.4070   263      197.0000      200.0000  1238362    1.52%
   1203   473      199.0192   250      197.0000      200.0000  1245208    1.52%
   1229   492      198.5000   123      197.0000      200.0000  1250837    1.52%
Elapsed time = 450.14 sec. (456882.63 ticks, tree = 6.06 MB, solutions = 6)
   1248   499      200.0000   232      197.0000      200.0000  1263343    1.52%
   1255   506      199.7903   327      197.0000      200.0000  1278524    1.52%
   1262   513      200.0000   112      197.0000      200.0000  1293173    1.52%
   1268   519      199.8966   406      197.0000      200.0000  1310976    1.52%
   1273   523      200.0000   125      197.0000      200.0000  1328710    1.52%
   1280   530      200.0000   144      197.0000      200.0000  1343668    1.52%
   1286   536      200.0000   146      197.0000      200.0000  1363897    1.52%
   1295   545      200.0000   136      197.0000      200.0000  1378612    1.52%
   1301   551      200.0000   148      197.0000      200.0000  1396563    1.52%
   1307   557      199.9806   426      197.0000      200.0000  1416275    1.52%
Elapsed time = 492.73 sec. (498509.19 ticks, tree = 6.90 MB, solutions = 6)
   1312   562      199.9814   400      197.0000      200.0000  1433869    1.52%
   1326   576      198.7778   262      197.0000      200.0000  1443190    1.52%
   1327   577      199.8913   338      197.0000      200.0000  1443304    1.52%
   1341   591      199.0000   379      197.0000      200.0000  1452545    1.52%
   1351   601      199.0000   346      197.0000      200.0000  1461619    1.52%
   1366   616      199.0000   232      197.0000      200.0000  1470037    1.52%
   1384   634      199.8027   342      197.0000      200.0000  1475933    1.52%
   1396   646      199.7634   349      197.0000      200.0000  1486181    1.52%
   1407   655      198.4286   276      197.0000      200.0000  1500177    1.52%
   1419   666      198.4286   284      197.0000      200.0000  1511052    1.52%
Elapsed time = 537.61 sec. (542086.22 ticks, tree = 8.35 MB, solutions = 6)
Starting limited solution polishing.
   1427   674      199.6429   370      197.0000      200.0000  1523880    1.52%
   1438   685      199.0000   408      197.0000      200.0000  1534040    1.52%
   1449   696      198.3333   230      197.0000      200.0000  1546317    1.52%
   1458   704      199.6705   348      197.0000      200.0000  1560186    1.52%
   1472   717      199.5722   314      197.0000      200.0000  1572313    1.52%
   1486   729      199.5179   280      197.0000      200.0000  1584805    1.52%
   1501   744      199.4414   262      197.0000      200.0000  1596444    1.52%
   1511   753      199.4214   289      197.0000      200.0000  1607289    1.52%
   1527   766      199.3250   280      197.0000      200.0000  1618654    1.52%
   1537   772      199.2059   314      197.0000      200.0000  1635388    1.52%
Elapsed time = 578.63 sec. (582055.24 ticks, tree = 9.72 MB, solutions = 6)
   1550   781      199.1429   251      197.0000      200.0000  1652270    1.52%
   1569   791      199.0769   148      197.0000      200.0000  1665561    1.52%
   1585   803      198.8462   161      197.0000      200.0000  1678827    1.52%
   1600   809      198.8000   205      197.0000      200.0000  1687618    1.52%
   1620   819      198.6500   184      197.0000      200.0000  1697888    1.52%

Clique cuts applied:  9
Zero-half cuts applied:  3
Gomory fractional cuts applied:  2

Root node processing (before b&c):
  Real time             =   16.93 sec. (19708.84 ticks)
Sequential b&c:
  Real time             =  583.07 sec. (582858.45 ticks)
                          ------------
Total (root+branch&cut) =  600.00 sec. (602567.29 ticks)
Primal:	197
Dual:	200
Status:	Feasible
Time:	599.97
Sequence:
	21
	7
	14
	10
	15
	7
	16
	12
	14
	7
	21
	1
	19
	10
	14
	7
	12
	14
	7
	23
	0
	18
	12
	14
	7
	23
	0
	18
	12
	14
	7
	20
	3
	7
	18
	5
	19
	7
	3
	18
	7
	17
	7
	18
	5
	18
	9
	3
	18
	7
	14
	9
	18
	5
	18
	7
	4
	18
	7
	14
	12
	19
	1
	21
	7
	16
	7
	21
	1
	19
	10
	16
	7
	21
	2
	18
	10
	14
	7
	20
	3
	18
	7
	5
	9
	18
	3
	7
	18
	3
	19
	7
	14
	12
	7
	16
	8
	18
	5
	7
	18
	6
	7
	18
	5
	7
	20
	3
	7
	16
	10
	7
	15
	12
	18
	1
	21
	8
	16
	10
	7
	14
	13
	18
	1
	21
	7
	16
	10
	8
	14
	10
	7
	14
	3
	20
	7
	14
	10
	18
	2
	21
	7
	14
	10
	9
	14
	10
	18
	1
	23
	7
	15
	10
	18
	1
	21
	8
	16
	10
	7
	14
	13
	18
	1
	21
	7
	15
	7
	21
	1
	18
	11
	14
	7
	12
	14
	8
	12
	14
	7
	21
	2
	18
	12
	14
	7
	10
	14
	9
	10
	16
	7
	21
	2
	18
	10
